p edge 89 213
e 1 2
e 1 4
e 1 10
e 1 15
e 1 20
e 1 34
e 1 53
e 1 60
e 1 66
e 1 70
e 1 89
e 2 4
e 2 6
e 2 9
e 2 13
e 2 20
e 2 21
e 2 23
e 2 24
e 2 25
e 2 27
e 2 31
e 2 34
e 2 45
e 2 48
e 2 52
e 3 4
e 3 5
e 3 7
e 3 14
e 3 17
e 3 27
e 3 40
e 3 44
e 3 67
e 4 14
e 4 17
e 4 20
e 4 34
e 4 79
e 5 23
e 5 27
e 5 39
e 5 41
e 5 42
e 5 54
e 5 86
e 5 87
e 6 11
e 6 12
e 6 22
e 6 25
e 6 47
e 6 53
e 6 59
e 6 77
e 7 27
e 7 40
e 7 51
e 7 56
e 7 67
e 8 16
e 8 33
e 8 35
e 8 78
e 8 81
e 9 14
e 9 27
e 9 30
e 9 37
e 9 51
e 9 56
e 9 83
e 10 31
e 10 37
e 10 44
e 10 60
e 11 12
e 11 26
e 11 32
e 11 45
e 11 52
e 12 45
e 12 57
e 12 72
e 12 73
e 12 76
e 13 24
e 13 43
e 13 45
e 13 48
e 13 52
e 13 72
e 13 73
e 13 77
e 14 17
e 14 30
e 14 37
e 14 79
e 15 53
e 15 69
e 15 74
e 15 75
e 15 89
e 16 19
e 16 25
e 16 28
e 16 32
e 16 33
e 16 38
e 16 58
e 17 54
e 17 62
e 17 79
e 18 39
e 18 40
e 18 41
e 18 42
e 18 71
e 18 84
e 19 25
e 19 50
e 19 61
e 20 29
e 20 34
e 20 56
e 21 22
e 21 29
e 21 36
e 21 68
e 21 82
e 22 53
e 22 59
e 22 68
e 22 69
e 22 77
e 23 27
e 23 31
e 23 86
e 24 43
e 24 45
e 24 48
e 24 52
e 24 64
e 24 88
e 25 50
e 26 46
e 26 49
e 26 60
e 26 66
e 26 85
e 27 31
e 27 86
e 28 32
e 28 38
e 29 34
e 29 55
e 29 61
e 29 82
e 30 37
e 30 70
e 31 44
e 31 51
e 32 38
e 33 38
e 33 58
e 33 78
e 35 37
e 36 47
e 36 62
e 36 82
e 38 58
e 39 41
e 39 42
e 39 71
e 39 84
e 40 64
e 40 71
e 41 42
e 43 48
e 43 52
e 43 65
e 44 51
e 45 48
e 45 52
e 46 49
e 46 60
e 46 66
e 48 52
e 49 85
e 50 61
e 51 56
e 53 59
e 53 69
e 53 77
e 54 62
e 55 61
e 55 78
e 57 72
e 57 73
e 57 84
e 58 80
e 59 69
e 59 77
e 60 66
e 63 75
e 64 88
e 71 84
e 72 73
e 72 77
e 73 77
e 74 75
e 76 80
